Route 1: 27 52 18 6 96 89 58
Route 2: 28 12 40 53 26 13 93
Route 3: 92 95 98 99 94 97 91 100
Route 4: 59 69 76 79 3 68 24 77
Route 5: 33 29 78 50 1 70
Route 6: 2 21 73 22 56 74 80
Route 7: 31 88 7 10 32
Route 8: 5 83 16 85 37 17
Route 9: 72 75 41 54 25
Route 10: 42 15 87 57 43
Route 11: 39 23 67 55 4
Route 12: 63 30 51 9 20 48
Route 13: 45 82 84
Route 14: 36 47 19 8 46 60
Route 15: 14 61 86
Route 16: 65 71 81 34 35
Route 17: 62 11 90 66
Route 18: 44 38
Route 19: 64 49
Vehicles: 19
Distance: 1940.97
